data/CVRPLIB/Vrp-Set-XML100/instances/XML100_1115_16.vrp
NAME : XML100_1115_16
COMMENT : Generated by Queiroga, Sadykov, Uchoa, and Vidal (2021)
TYPE : CVRP
DIMENSION : 101
EDGE_WEIGHT_TYPE : EUC_2D
CAPACITY : 20
NODE_COORD_SECTION
1    177  966 
2    44   629 
3    929  918 
4    802  959 
5    31   165 
6    928  549 
7    266  672 
8    728  470 
9    55   838 
10   856  479 
11   235  525 
12   582  425 
13   333  700 
14   92   533 
15   997  294 
16   948  135 
17   776  731 
18   156  89  
19   448  404 
20   693  470 
21   148  31  
22   143  522 
23   472  761 
24   472  472 
25   255  437 
26   88   356 
27   893  387 
28   84   423 
29   580  641 
30   21   313 
31   668  96  
32   314  287 
33   207  169 
34   889  201 
35   769  607 
36   784  657 
37   773  420 
38   402  158 
39   185  612 
40   416  788 
41   479  531 
42   425  229 
43   967  224 
44   886  12  
45   173  531 
46   954  903 
47   949  455 
48   77   153 
49   506  950 
50   629  739 
51   533  792 
52   263  515 
53   21   474 
54   366  380 
55   235  93  
56   391  113 
57   141  191 
58   419  361 
59   61   938 
60   770  931 
61   989  112 
62   980  16  
63   106  901 
64   295  399 
65   421  906 
66   74   472 
67   762  955 
68   136  304 
69   954  472 
70   513  662 
71   868  868 
72   734  829 
73   84   115 
74   237  441 
75   1    52  
76   509  369 
77   154  474 
78   569  916 
79   653  831 
80   513  801 
81   452  585 
82   736  883 
83   205  815 
84   70   31  
85   467  432 
86   969  816 
87   445  132 
88   162  718 
89   326  79  
90   448  956 
91   815  118 
92   127  272 
93   621  364 
94   101  316 
95   847  892 
96   798  527 
97   661  373 
98   569  479 
99   367  608 
100  422  66  
101  864  356 
DEMAND_SECTION
1    0   
2    1   
3    1   
4    1   
5    1   
6    1   
7    1   
8    1   
9    1   
10   1   
11   1   
12   1   
13   1   
14   1   
15   1   
16   1   
17   1   
18   1   
19   1   
20   1   
21   1   
22   1   
23   1   
24   1   
25   1   
26   1   
27   1   
28   1   
29   1   
30   1   
31   1   
32   1   
33   1   
34   1   
35   1   
36   1   
37   1   
38   1   
39   1   
40   1   
41   1   
42   1   
43   1   
44   1   
45   1   
46   1   
47   1   
48   1   
49   1   
50   1   
51   1   
52   1   
53   1   
54   1   
55   1   
56   1   
57   1   
58   1   
59   1   
60   1   
61   1   
62   1   
63   1   
64   1   
65   1   
66   1   
67   1   
68   1   
69   1   
70   1   
71   1   
72   1   
73   1   
74   1   
75   1   
76   1   
77   1   
78   1   
79   1   
80   1   
81   1   
82   1   
83   1   
84   1   
85   1   
86   1   
87   1   
88   1   
89   1   
90   1   
91   1   
92   1   
93   1   
94   1   
95   1   
96   1   
97   1   
98   1   
99   1   
100  1   
101  1   
DEPOT_SECTION
1
-1
EOF
