data/CVRPLIB/Vrp-Set-XML100/solutions/XML100_1115_16.sol
Route #1: 89 48 77 78 71 81 59 66 3 94 70 2 45 85 16 35 49 50 79 64
Route #2: 62 13 65 27 25 93 91 56 17 20 83 74 72 47 4 29 52 1 8 58
Route #3: 6 53 57 30 90 43 61 60 15 33 42 14 100 26 46 68 5 9 95 34
Route #4: 82 12 98 80 40 23 84 18 75 11 92 96 36 7 19 97 28 69 22 39
Route #5: 10 51 73 24 63 31 41 37 86 99 55 88 54 32 67 76 21 44 38 87
Cost 11643
